StudentsNr = 10;
InstructorsNr = 7;
DaysNr = 1;
SlotsPerDay = 60;
AvailabilitySlotsLenght = 60;
RoomNr = 2;
ProgrammNr = 2;
DegreeNr = 1;
RolesNr = 4;
CoursesNr = 0;
InstructorsProgramm = [{2}, {2}, {1}, {1}, {1, 2}, {1, 2}, {2}];
InstructorRolesPerProgramm = [|{3, 5}, {}, {}, {}|{1, 5, 7}, {7}, {}, {1, 2}|];
InstructorsAvailability = [|0, |0, |1, |1, |0, |0, |0|];
StudentsProgramm = [2, 2, 2, 2, 2, 2, 2, 1, 1, 2];
StudentsDegree = [1, 1, 1, 1, 1, 1, 1, 1, 1, 1];
StudentsSupervisorId = [5, 5, 5, 5, 5, 6, 2, 5, 6, 2];
StudentsCourseIds = [{}, {}, {}, {}, {}, {}, {}, {}, {}, {}];
StudentsAvailability = [|0, |0, |0, |0, |0, |0, |1, |0, |1, |0|];
TheoryticalMinCard = [0, 0, 0, 0, 0, 1, 0, 0, 1, 0];
CoursesInstructorIds = [];
RolesDemands = [2, 1, 1, 1];
RolesContinuity = [];
ExamLen = [1, 1, 1, 1, 1, 1, 1, 1, 1, 1];
LunchTsMinLen = 0;
LunchStarts = [30..32];
SupervisorAvailable = 0;
OptimalLunchLenght = [1, 0];
OptimalStartTs = [1, 0];
OptimalFinishTs = [0, 60];
MinimizeRooms = 400;
RolesSoftContinuity = [|1, 2, 3, 4|4, 4, 3, 2|];
SameDegreeInRoom = 20;
Mergeability = 0;
